
  32    4
  10   10   10   10

   0   0   0   0   0   8 2 3 4 6 8 10 12 14 
   8   1   1   0   1   5 18 17 16 9 5 
   4   2   3   0   2   5 24 16 15 13 7 
   7   4   3   1   0   9 31 30 29 24 21 20 19 15 13 
   1   2   4   0   5   6 31 30 24 21 20 11 
   6   5   7   3   0   6 29 24 20 19 17 13 
   6   3   0   6   1   8 30 29 28 23 22 21 20 19 
   3   0   3   3   7   5 31 29 23 20 15 
   5   0   3   2   6   6 31 30 29 28 20 19 
   8   5   0   4   4   4 31 29 24 15 
   9   5   0   1   4   3 23 19 15 
   9   1   0   2   4   2 22 17 
   8   7   3   0   7   4 28 26 23 22 
   9   6   1   3   0   1 15 
   5   6   0   3   5   4 28 26 25 22 
   3   0   8   7   5   4 29 27 26 23 
   2   0   8   7   2   4 30 28 26 25 
   7   0   5   5   5   1 19 
   7   3   6   0   6   3 27 26 25 
   6   3   0   4   6   2 26 25 
  10   3   2   8   0   2 27 25 
   1   4   0   4   5   1 27 
   6   5   3   0   2   1 25 
   4   0   2   5   4   1 26 
   3   5   3   0   2   1 32
   6   4   5   3   0   1 32
   9   5   0   2   6   1 32
   1   5   0   4   2   1 32
   7   6   0   7   2   1 32
   6   4   7   4   0   1 32
   6   2   3   0   3   1 32
   0   0   0   0   0   0 
